5 5
7 4 5 4 4 11 3 18 2 2 4 4 14 5 20 2 17 1 5 3 1 8 5 9 4 16 2 5 20 2 5 5 1 20 2 5 3 11 5 19 4 16 2 4 11 5 2 2 2 19 1 16
6 2 4 2 5 13 5 3 14 1 6 5 13 4 8 2 14 5 4 16 3 13 5 15 2 12 1 13 4 1 12 5 20 2 14 4 18 5 2 10 4 9 1 7 5 10 3 9 3 2 14 4 19 1 16
4 3 5 17 2 7 1 8 2 3 17 5 3 4 3 14 2 18 4 19 1 16 2 4 4 5 19
7 4 5 19 4 6 1 5 3 6 5 1 7 3 11 4 6 2 13 5 12 4 3 11 5 11 2 12 4 10 4 5 15 1 10 3 16 4 9 4 3 9 2 18 1 19 5 18 4 1 8 2 16 3 6 5 18 4 2 12 5 17 3 10 4 20
4 3 4 5 3 17 1 17 4 2 13 5 8 3 9 4 12 2 5 6 3 15 1 3 2